min: c;

c = 3.93452563401855 * u4_t1_h1 + 3.92447896545527 * u4_t1_h2 + 3.36456230969725 * u4_t1_h3 + 3.08645707645783 * u4_t1_h4 + 3.08645707645783 * u4_t10_h4 + 3.58453817480728 * u4_t1_h5 + 3.58453817480728 * u4_t10_h5 + 3.49922561145857 * u4_t1_h6 + 3.49922561145857 * u4_t10_h6 + 4.40143526202266 * u4_t1_h7 + 4.40143526202266 * u4_t10_h7 + 5.14716844275582 * u4_t1_h8 + 5.14716844275582 * u4_t9_h8 + 5.14716844275582 * u4_t10_h8 + 5.31289168102192 * u4_t9_h9 + 5.31289168102192 * u4_t10_h9 + 5.45200382040061 * u4_t9_h10 + 5.45200382040061 * u4_t10_h10 + 4.15640528850409 * u4_t2_h11 + 4.15640528850409 * u4_t4_h11 + 4.15640528850409 * u4_t9_h11 + 4.15640528850409 * u4_t10_h11 + 6.35948131717337 * u4_t2_h12 + 6.35948131717337 * u4_t3_h12 + 6.35948131717337 * u4_t4_h12 + 6.35948131717337 * u4_t8_h12 + 6.35948131717337 * u4_t9_h12 + 6.35948131717337 * u4_t10_h12 + 4.16797429509129 * u4_t2_h13 + 4.16797429509129 * u4_t3_h13 + 4.16797429509129 * u4_t4_h13 + 4.16797429509129 * u4_t8_h13 + 4.16797429509129 * u4_t9_h13 + 5.80626981458412 * u4_t2_h14 + 5.80626981458412 * u4_t3_h14 + 5.80626981458412 * u4_t4_h14 + 5.80626981458412 * u4_t8_h14 + 5.80626981458412 * u4_t9_h14 + 5.87162331023264 * u4_t2_h15 + 5.87162331023264 * u4_t3_h15 + 5.87162331023264 * u4_t4_h15 + 5.87162331023264 * u4_t8_h15 + 5.87162331023264 * u4_t9_h15 + 5.61406774419113 * u4_t2_h16 + 5.61406774419113 * u4_t3_h16 + 5.61406774419113 * u4_t4_h16 + 5.61406774419113 * u4_t5_h16 + 5.61406774419113 * u4_t8_h16 + 5.61406774419113 * u4_t9_h16 + 6.56620461049385 * u4_t2_h17 + 6.56620461049385 * u4_t3_h17 + 6.56620461049385 * u4_t5_h17 + 6.56620461049385 * u4_t8_h17 + 6.56620461049385 * u4_t9_h17 + 6.17375586095476 * u4_t2_h18 + 6.17375586095476 * u4_t3_h18 + 6.17375586095476 * u4_t5_h18 + 6.17375586095476 * u4_t8_h18 + 6.17375586095476 * u4_t9_h18 + 5.97020433925531 * u4_t2_h19 + 5.97020433925531 * u4_t3_h19 + 5.97020433925531 * u4_t6_h19 + 5.97020433925531 * u4_t8_h19 + 5.97020433925531 * u4_t9_h19 + 5.14203416966082 * u4_t2_h20 + 5.14203416966082 * u4_t6_h20 + 5.14203416966082 * u4_t9_h20 + 5.38009330766337 * u4_t6_h21 + 5.23886569223511 * u4_t6_h22 + 5.23886569223511 * u4_t7_h22 + 5.55751518213488 * u4_t6_h23 + 5.55751518213488 * u4_t7_h23;
0 <= u4_t1_h1 <= 1;
0 <= u4_t1_h2 <= 1;
0 <= u4_t1_h3 <= 1;
0 <= u4_t1_h4 <= 1;
0 <= u4_t1_h5 <= 1;
0 <= u4_t1_h6 <= 1;
0 <= u4_t1_h7 <= 1;
0 <= u4_t1_h8 <= 1;
u4_t1_h1 + u4_t1_h2 + u4_t1_h3 + u4_t1_h4 + u4_t1_h5 + u4_t1_h6 + u4_t1_h7 + u4_t1_h8 = 1;
0 <= u4_t2_h11 <= 1;
0 <= u4_t2_h12 <= 1;
0 <= u4_t2_h13 <= 1;
0 <= u4_t2_h14 <= 1;
0 <= u4_t2_h15 <= 1;
0 <= u4_t2_h16 <= 1;
0 <= u4_t2_h17 <= 1;
0 <= u4_t2_h18 <= 1;
0 <= u4_t2_h19 <= 1;
0 <= u4_t2_h20 <= 1;
u4_t2_h11 + u4_t2_h12 + u4_t2_h13 + u4_t2_h14 + u4_t2_h15 + u4_t2_h16 + u4_t2_h17 + u4_t2_h18 + u4_t2_h19 + u4_t2_h20 = 2;
0 <= u4_t3_h12 <= 1;
0 <= u4_t3_h13 <= 1;
0 <= u4_t3_h14 <= 1;
0 <= u4_t3_h15 <= 1;
0 <= u4_t3_h16 <= 1;
0 <= u4_t3_h17 <= 1;
0 <= u4_t3_h18 <= 1;
0 <= u4_t3_h19 <= 1;
u4_t3_h12 + u4_t3_h13 + u4_t3_h14 + u4_t3_h15 + u4_t3_h16 + u4_t3_h17 + u4_t3_h18 + u4_t3_h19 = 3;
0 <= u4_t4_h11 <= 1;
0 <= u4_t4_h12 <= 1;
0 <= u4_t4_h13 <= 1;
0 <= u4_t4_h14 <= 1;
0 <= u4_t4_h15 <= 1;
0 <= u4_t4_h16 <= 1;
u4_t4_h11 + u4_t4_h12 + u4_t4_h13 + u4_t4_h14 + u4_t4_h15 + u4_t4_h16 = 3;
0 <= u4_t5_h16 <= 1;
0 <= u4_t5_h17 <= 1;
0 <= u4_t5_h18 <= 1;
u4_t5_h16 + u4_t5_h17 + u4_t5_h18 = 1;
0 <= u4_t6_h19 <= 1;
0 <= u4_t6_h20 <= 1;
0 <= u4_t6_h21 <= 1;
0 <= u4_t6_h22 <= 1;
0 <= u4_t6_h23 <= 1;
u4_t6_h19 + u4_t6_h20 + u4_t6_h21 + u4_t6_h22 + u4_t6_h23 = 3;
0 <= u4_t7_h22 <= 1;
0 <= u4_t7_h23 <= 1;
u4_t7_h22 + u4_t7_h23 = 1;
0 <= u4_t8_h12 <= 1;
0 <= u4_t8_h13 <= 1;
0 <= u4_t8_h14 <= 1;
0 <= u4_t8_h15 <= 1;
0 <= u4_t8_h16 <= 1;
0 <= u4_t8_h17 <= 1;
0 <= u4_t8_h18 <= 1;
0 <= u4_t8_h19 <= 1;
u4_t8_h12 + u4_t8_h13 + u4_t8_h14 + u4_t8_h15 + u4_t8_h16 + u4_t8_h17 + u4_t8_h18 + u4_t8_h19 = 2;
0 <= u4_t9_h8 <= 1;
0 <= u4_t9_h9 <= 1;
0 <= u4_t9_h10 <= 1;
0 <= u4_t9_h11 <= 1;
0 <= u4_t9_h12 <= 1;
0 <= u4_t9_h13 <= 1;
0 <= u4_t9_h14 <= 1;
0 <= u4_t9_h15 <= 1;
0 <= u4_t9_h16 <= 1;
0 <= u4_t9_h17 <= 1;
0 <= u4_t9_h18 <= 1;
0 <= u4_t9_h19 <= 1;
0 <= u4_t9_h20 <= 1;
u4_t9_h8 + u4_t9_h9 + u4_t9_h10 + u4_t9_h11 + u4_t9_h12 + u4_t9_h13 + u4_t9_h14 + u4_t9_h15 + u4_t9_h16 + u4_t9_h17 + u4_t9_h18 + u4_t9_h19 + u4_t9_h20 = 2;
0 <= u4_t10_h4 <= 1;
0 <= u4_t10_h5 <= 1;
0 <= u4_t10_h6 <= 1;
0 <= u4_t10_h7 <= 1;
0 <= u4_t10_h8 <= 1;
0 <= u4_t10_h9 <= 1;
0 <= u4_t10_h10 <= 1;
0 <= u4_t10_h11 <= 1;
0 <= u4_t10_h12 <= 1;
u4_t10_h4 + u4_t10_h5 + u4_t10_h6 + u4_t10_h7 + u4_t10_h8 + u4_t10_h9 + u4_t10_h10 + u4_t10_h11 + u4_t10_h12 = 2;
